p cnf 1170 834
c p distribution  0.875 0.125
c p distribution  0.875 0.125
c p distribution  0.875 0.125
c p distribution  0.875 0.125
c p distribution  0.875 0.125
c p distribution  0.875 0.125
c p distribution  0.875 0.125
c p distribution  0.875 0.125
c p distribution  0.875 0.125
c p distribution  0.875 0.125
c p distribution  0.875 0.125
c p distribution  0.875 0.125
c p distribution  0.875 0.125
c p distribution  0.875 0.125
c p distribution  0.875 0.125
c p distribution  0.875 0.125
c p distribution  0.875 0.125
c p distribution  0.875 0.125
c p distribution  0.875 0.125
c p distribution  0.875 0.125
c p distribution  0.875 0.125
c p distribution  0.875 0.125
c p distribution  0.875 0.125
c p distribution  0.875 0.125
c p distribution  0.875 0.125
c p distribution  0.875 0.125
c p distribution  0.875 0.125
c p distribution  0.875 0.125
c p distribution  0.875 0.125
c p distribution  0.875 0.125
c p distribution  0.875 0.125
c p distribution  0.875 0.125
c p distribution  0.875 0.125
c p distribution  0.875 0.125
c p distribution  0.875 0.125
c p distribution  0.875 0.125
c p distribution  0.875 0.125
c p distribution  0.875 0.125
c p distribution  0.875 0.125
c p distribution  0.875 0.125
c p distribution  0.875 0.125
c p distribution  0.875 0.125
c p distribution  0.875 0.125
c p distribution  0.875 0.125
c p distribution  0.875 0.125
c p distribution  0.875 0.125
c p distribution  0.875 0.125
c p distribution  0.875 0.125
c p distribution  0.875 0.125
c p distribution  0.875 0.125
c p distribution  0.875 0.125
c p distribution  0.875 0.125
c p distribution  0.875 0.125
c p distribution  0.875 0.125
c p distribution  0.875 0.125
c p distribution  0.875 0.125
c p distribution  0.875 0.125
c p distribution  0.875 0.125
c p distribution  0.875 0.125
c p distribution  0.875 0.125
c p distribution  0.875 0.125
c p distribution  0.875 0.125
c p distribution  0.875 0.125
c p distribution  0.875 0.125
c p distribution  0.875 0.125
c p distribution  0.875 0.125
c p distribution  0.875 0.125
c p distribution  0.875 0.125
c p distribution  0.875 0.125
c p distribution  0.875 0.125
c p distribution  0.875 0.125
c p distribution  0.875 0.125
c p distribution  0.875 0.125
c p distribution  0.875 0.125
c p distribution  0.875 0.125
c p distribution  0.875 0.125
c p distribution  0.875 0.125
c p distribution  0.875 0.125
c p distribution  0.875 0.125
c p distribution  0.875 0.125
c p distribution  0.875 0.125
c p distribution  0.875 0.125
c p distribution  0.875 0.125
c p distribution  0.875 0.125
c p distribution  0.875 0.125
c p distribution  0.875 0.125
c p distribution  0.875 0.125
c p distribution  0.875 0.125
c p distribution  0.875 0.125
c p distribution  0.875 0.125
c p distribution  0.875 0.125
c p distribution  0.875 0.125
c p distribution  0.875 0.125
c p distribution  0.875 0.125
c p distribution  0.875 0.125
c p distribution  0.875 0.125
c p distribution  0.875 0.125
c p distribution  0.875 0.125
c p distribution  0.875 0.125
c p distribution  0.875 0.125
c p distribution  0.875 0.125
c p distribution  0.875 0.125
c p distribution  0.875 0.125
c p distribution  0.875 0.125
c p distribution  0.875 0.125
c p distribution  0.875 0.125
c p distribution  0.875 0.125
c p distribution  0.875 0.125
c p distribution  0.875 0.125
c p distribution  0.875 0.125
c p distribution  0.875 0.125
c p distribution  0.875 0.125
c p distribution  0.875 0.125
c p distribution  0.875 0.125
c p distribution  0.875 0.125
c p distribution  0.875 0.125
c p distribution  0.875 0.125
c p distribution  0.875 0.125
c p distribution  0.875 0.125
c p distribution  0.875 0.125
c p distribution  0.875 0.125
c p distribution  0.875 0.125
c p distribution  0.875 0.125
c p distribution  0.875 0.125
c p distribution  0.875 0.125
c p distribution  0.875 0.125
c p distribution  0.875 0.125
c p distribution  0.875 0.125
c p distribution  0.875 0.125
c p distribution  0.875 0.125
c p distribution  0.875 0.125
c p distribution  0.875 0.125
c p distribution  0.875 0.125
c p distribution  0.875 0.125
c p distribution  0.875 0.125
c p distribution  0.875 0.125
c p distribution  0.875 0.125
c p distribution  0.875 0.125
c p distribution  0.875 0.125
c p distribution  0.875 0.125
c p distribution  0.875 0.125
c p distribution  0.875 0.125
c p distribution  0.875 0.125
c p distribution  0.875 0.125
c p distribution  0.875 0.125
c p distribution  0.875 0.125
c p distribution  0.875 0.125
c p distribution  0.875 0.125
c p distribution  0.875 0.125
c p distribution  0.875 0.125
c p distribution  0.875 0.125
c p distribution  0.875 0.125
c p distribution  0.875 0.125
c p distribution  0.875 0.125
c p distribution  0.875 0.125
c p distribution  0.875 0.125
c p distribution  0.875 0.125
c p distribution  0.875 0.125
c p distribution  0.875 0.125
c p distribution  0.875 0.125
c p distribution  0.875 0.125
c p distribution  0.875 0.125
c p distribution  0.875 0.125
c p distribution  0.875 0.125
c p distribution  0.875 0.125
c p distribution  0.875 0.125
c p distribution  0.875 0.125
c p distribution  0.875 0.125
c p distribution  0.875 0.125
c p distribution  0.875 0.125
c p distribution  0.875 0.125
c p distribution  0.875 0.125
c p distribution  0.875 0.125
c p distribution  0.875 0.125
c p distribution  0.875 0.125
c p distribution  0.875 0.125
c p distribution  0.875 0.125
c p distribution  0.875 0.125
c p distribution  0.875 0.125
c p distribution  0.875 0.125
c p distribution  0.875 0.125
c p distribution  0.875 0.125
c p distribution  0.875 0.125
c p distribution  0.875 0.125
c p distribution  0.875 0.125
c p distribution  0.875 0.125
c p distribution  0.875 0.125
c p distribution  0.875 0.125
c p distribution  0.875 0.125
c p distribution  0.875 0.125
c p distribution  0.875 0.125
c p distribution  0.875 0.125
c p distribution  0.875 0.125
c p distribution  0.875 0.125
c p distribution  0.875 0.125
c p distribution  0.875 0.125
c p distribution  0.875 0.125
c p distribution  0.875 0.125
c p distribution  0.875 0.125
c p distribution  0.875 0.125
c p distribution  0.875 0.125
c p distribution  0.875 0.125
c p distribution  0.875 0.125
c p distribution  0.875 0.125
c p distribution  0.875 0.125
c p distribution  0.875 0.125
c p distribution  0.875 0.125
c p distribution  0.875 0.125
c p distribution  0.875 0.125
c p distribution  0.875 0.125
c p distribution  0.875 0.125
c p distribution  0.875 0.125
c p distribution  0.875 0.125
c p distribution  0.875 0.125
c p distribution  0.875 0.125
c p distribution  0.875 0.125
c p distribution  0.875 0.125
c p distribution  0.875 0.125
c p distribution  0.875 0.125
c p distribution  0.875 0.125
c p distribution  0.875 0.125
c p distribution  0.875 0.125
c p distribution  0.875 0.125
c p distribution  0.875 0.125
c p distribution  0.875 0.125
c p distribution  0.875 0.125
c p distribution  0.875 0.125
c p distribution  0.875 0.125
c p distribution  0.875 0.125
c p distribution  0.875 0.125
c p distribution  0.875 0.125
c p distribution  0.875 0.125
c p distribution  0.875 0.125
c p distribution  0.875 0.125
c p distribution  0.875 0.125
c p distribution  0.875 0.125
c p distribution  0.875 0.125
c p distribution  0.875 0.125
c p distribution  0.875 0.125
c p distribution  0.875 0.125
c p distribution  0.875 0.125
c p distribution  0.875 0.125
c p distribution  0.875 0.125
c p distribution  0.875 0.125
c p distribution  0.875 0.125
c p distribution  0.875 0.125
c p distribution  0.875 0.125
c p distribution  0.875 0.125
c p distribution  0.875 0.125
c p distribution  0.875 0.125
c p distribution  0.875 0.125
c p distribution  0.875 0.125
c p distribution  0.875 0.125
c p distribution  0.875 0.125
c p distribution  0.875 0.125
c p distribution  0.875 0.125
c p distribution  0.875 0.125
c p distribution  0.875 0.125
c p distribution  0.875 0.125
c p distribution  0.875 0.125
c p distribution  0.875 0.125
c p distribution  0.875 0.125
c p distribution  0.875 0.125
c p distribution  0.875 0.125
c p distribution  0.875 0.125
c p distribution  0.875 0.125
c p distribution  0.875 0.125
c p distribution  0.875 0.125
c p distribution  0.875 0.125
c p distribution  0.875 0.125
c p distribution  0.875 0.125
c p distribution  0.875 0.125
c p distribution  0.875 0.125
c p distribution  0.875 0.125
c p distribution  0.875 0.125
c p distribution  0.875 0.125
c p distribution  0.875 0.125
c p distribution  0.875 0.125
c p distribution  0.875 0.125
c p distribution  0.875 0.125
c p distribution  0.875 0.125
c p distribution  0.875 0.125
c p distribution  0.875 0.125
c p distribution  0.875 0.125
c p distribution  0.875 0.125
c p distribution  0.875 0.125
c p distribution  0.875 0.125
c p distribution  0.875 0.125
c p distribution  0.875 0.125
c p distribution  0.875 0.125
c p distribution  0.875 0.125
c p distribution  0.875 0.125
c p distribution  0.875 0.125
c p distribution  0.875 0.125
c p distribution  0.875 0.125
c p distribution  0.875 0.125
c p distribution  0.875 0.125
c p distribution  0.875 0.125
c p distribution  0.875 0.125
c p distribution  0.875 0.125
c p distribution  0.875 0.125
c p distribution  0.875 0.125
c p distribution  0.875 0.125
c p distribution  0.875 0.125
c p distribution  0.875 0.125
c p distribution  0.875 0.125
c p distribution  0.875 0.125
c p distribution  0.875 0.125
c p distribution  0.875 0.125
c p distribution  0.875 0.125
c p distribution  0.875 0.125
c p distribution  0.875 0.125
c p distribution  0.875 0.125
c p distribution  0.875 0.125
c p distribution  0.875 0.125
c p distribution  0.875 0.125
c p distribution  0.875 0.125
c p distribution  0.875 0.125
c p distribution  0.875 0.125
c p distribution  0.875 0.125
c p distribution  0.875 0.125
c p distribution  0.875 0.125
c p distribution  0.875 0.125
c p distribution  0.875 0.125
c p distribution  0.875 0.125
c p distribution  0.875 0.125
c p distribution  0.875 0.125
c p distribution  0.875 0.125
c p distribution  0.875 0.125
c p distribution  0.875 0.125
c p distribution  0.875 0.125
c p distribution  0.875 0.125
c p distribution  0.875 0.125
c p distribution  0.875 0.125
c p distribution  0.875 0.125
c p distribution  0.875 0.125
c p distribution  0.875 0.125
c p distribution  0.875 0.125
c p distribution  0.875 0.125
c p distribution  0.875 0.125
c p distribution  0.875 0.125
c p distribution  0.875 0.125
c p distribution  0.875 0.125
c p distribution  0.875 0.125
c p distribution  0.875 0.125
c p distribution  0.875 0.125
c p distribution  0.875 0.125
c p distribution  0.875 0.125
c p distribution  0.875 0.125
c p distribution  0.875 0.125
c p distribution  0.875 0.125
c p distribution  0.875 0.125
c p distribution  0.875 0.125
c p distribution  0.875 0.125
c p distribution  0.875 0.125
c p distribution  0.875 0.125
c p distribution  0.875 0.125
c p distribution  0.875 0.125
c p distribution  0.875 0.125
c p distribution  0.875 0.125
c p distribution  0.875 0.125
c p distribution  0.875 0.125
c p distribution  0.875 0.125
c p distribution  0.875 0.125
c p distribution  0.875 0.125
c p distribution  0.875 0.125
c p distribution  0.875 0.125
c p distribution  0.875 0.125
c p distribution  0.875 0.125
c p distribution  0.875 0.125
c p distribution  0.875 0.125
c p distribution  0.875 0.125
c p distribution  0.875 0.125
c p distribution  0.875 0.125
c p distribution  0.875 0.125
c p distribution  0.875 0.125
c p distribution  0.875 0.125
c p distribution  0.875 0.125
c p distribution  0.875 0.125
c p distribution  0.875 0.125
c p distribution  0.875 0.125
c p distribution  0.875 0.125
c p distribution  0.875 0.125
c p distribution  0.875 0.125
c p distribution  0.875 0.125
c p distribution  0.875 0.125
c p distribution  0.875 0.125
c p distribution  0.875 0.125
c p distribution  0.875 0.125
c p distribution  0.875 0.125
c p distribution  0.875 0.125
c p distribution  0.875 0.125
c p distribution  0.875 0.125
c p distribution  0.875 0.125
c p distribution  0.875 0.125
c p distribution  0.875 0.125
c p distribution  0.875 0.125
c p distribution  0.875 0.125
c p distribution  0.875 0.125
c p distribution  0.875 0.125
c p distribution  0.875 0.125
c p distribution  0.875 0.125
c p distribution  0.875 0.125
c p distribution  0.875 0.125
c p distribution  0.875 0.125
c p distribution  0.875 0.125
c p distribution  0.875 0.125
c p distribution  0.875 0.125
c p distribution  0.875 0.125
c p distribution  0.875 0.125
c p distribution  0.875 0.125
c p distribution  0.875 0.125
c p distribution  0.875 0.125
c p distribution  0.875 0.125
c p distribution  0.875 0.125
c p distribution  0.875 0.125
916 0
-1069 0
1026 -881 -1 0
881 -1026 -1 0
838 -1123 -3 0
1123 -838 -3 0
1111 -1100 -5 0
1100 -1111 -5 0
968 -1094 -7 0
1094 -968 -7 0
954 -921 -9 0
921 -954 -9 0
848 -1100 -11 0
1100 -848 -11 0
1074 -1066 -13 0
1066 -1074 -13 0
961 -842 -15 0
842 -961 -15 0
1099 -1121 -17 0
1121 -1099 -17 0
1167 -1117 -19 0
1117 -1167 -19 0
1030 -960 -21 0
960 -1030 -21 0
1145 -875 -23 0
875 -1145 -23 0
1008 -1037 -25 0
1037 -1008 -25 0
1080 -908 -27 0
908 -1080 -27 0
836 -1101 -29 0
1101 -836 -29 0
1116 -1094 -31 0
1094 -1116 -31 0
1092 -1036 -33 0
1036 -1092 -33 0
972 -1020 -35 0
1020 -972 -35 0
843 -1159 -37 0
1159 -843 -37 0
977 -942 -39 0
942 -977 -39 0
1009 -1047 -41 0
1047 -1009 -41 0
1030 -915 -43 0
915 -1030 -43 0
883 -1044 -45 0
1044 -883 -45 0
861 -1087 -47 0
1087 -861 -47 0
887 -897 -49 0
897 -887 -49 0
1163 -842 -51 0
842 -1163 -51 0
1165 -1023 -53 0
1023 -1165 -53 0
943 -1161 -55 0
1161 -943 -55 0
1125 -901 -57 0
901 -1125 -57 0
954 -1131 -59 0
1131 -954 -59 0
975 -855 -61 0
855 -975 -61 0
919 -836 -63 0
836 -919 -63 0
846 -949 -65 0
949 -846 -65 0
840 -959 -67 0
959 -840 -67 0
985 -870 -69 0
870 -985 -69 0
1108 -987 -71 0
987 -1108 -71 0
1030 -897 -73 0
897 -1030 -73 0
1080 -908 -75 0
908 -1080 -75 0
969 -919 -77 0
919 -969 -77 0
1027 -993 -79 0
993 -1027 -79 0
998 -931 -81 0
931 -998 -81 0
977 -1084 -83 0
1084 -977 -83 0
1117 -1026 -85 0
1026 -1117 -85 0
893 -1031 -87 0
1031 -893 -87 0
1002 -995 -89 0
995 -1002 -89 0
1073 -1127 -91 0
1127 -1073 -91 0
1124 -943 -93 0
943 -1124 -93 0
987 -891 -95 0
891 -987 -95 0
947 -1095 -97 0
1095 -947 -97 0
846 -1134 -99 0
1134 -846 -99 0
1042 -981 -101 0
981 -1042 -101 0
1059 -965 -103 0
965 -1059 -103 0
1079 -995 -105 0
995 -1079 -105 0
1151 -1068 -107 0
1068 -1151 -107 0
900 -1148 -109 0
1148 -900 -109 0
979 -1019 -111 0
1019 -979 -111 0
1150 -868 -113 0
868 -1150 -113 0
1035 -992 -115 0
992 -1035 -115 0
1015 -1167 -117 0
1167 -1015 -117 0
897 -1036 -119 0
1036 -897 -119 0
896 -1130 -121 0
1130 -896 -121 0
979 -1063 -123 0
1063 -979 -123 0
1168 -841 -125 0
841 -1168 -125 0
1152 -875 -127 0
875 -1152 -127 0
1029 -936 -129 0
936 -1029 -129 0
905 -1131 -131 0
1131 -905 -131 0
850 -899 -133 0
899 -850 -133 0
1013 -874 -135 0
874 -1013 -135 0
901 -897 -137 0
897 -901 -137 0
1105 -1040 -139 0
1040 -1105 -139 0
1032 -1088 -141 0
1088 -1032 -141 0
892 -1090 -143 0
1090 -892 -143 0
984 -1012 -145 0
1012 -984 -145 0
976 -1019 -147 0
1019 -976 -147 0
1091 -944 -149 0
944 -1091 -149 0
1042 -981 -151 0
981 -1042 -151 0
1044 -1164 -153 0
1164 -1044 -153 0
1110 -1078 -155 0
1078 -1110 -155 0
1044 -909 -157 0
909 -1044 -157 0
947 -1055 -159 0
1055 -947 -159 0
904 -946 -161 0
946 -904 -161 0
1061 -1126 -163 0
1126 -1061 -163 0
1049 -1146 -165 0
1146 -1049 -165 0
1125 -1064 -167 0
1064 -1125 -167 0
1129 -1144 -169 0
1144 -1129 -169 0
871 -1058 -171 0
1058 -871 -171 0
1158 -1018 -173 0
1018 -1158 -173 0
1126 -1111 -175 0
1111 -1126 -175 0
955 -918 -177 0
918 -955 -177 0
1142 -1033 -179 0
1033 -1142 -179 0
1023 -1062 -181 0
1062 -1023 -181 0
1003 -1058 -183 0
1058 -1003 -183 0
953 -839 -185 0
839 -953 -185 0
874 -1065 -187 0
1065 -874 -187 0
947 -1055 -189 0
1055 -947 -189 0
1166 -916 -191 0
916 -1166 -191 0
1096 -916 -193 0
916 -1096 -193 0
922 -1101 -195 0
1101 -922 -195 0
907 -971 -197 0
971 -907 -197 0
1050 -957 -199 0
957 -1050 -199 0
1003 -1058 -201 0
1058 -1003 -201 0
1061 -1049 -203 0
1049 -1061 -203 0
988 -923 -205 0
923 -988 -205 0
1099 -1130 -207 0
1130 -1099 -207 0
1073 -872 -209 0
872 -1073 -209 0
1009 -1141 -211 0
1141 -1009 -211 0
1089 -851 -213 0
851 -1089 -213 0
1055 -1095 -215 0
1095 -1055 -215 0
903 -1013 -217 0
1013 -903 -217 0
1142 -1137 -219 0
1137 -1142 -219 0
959 -949 -221 0
949 -959 -221 0
857 -869 -223 0
869 -857 -223 0
908 -1082 -225 0
1082 -908 -225 0
1093 -1087 -227 0
1087 -1093 -227 0
861 -922 -229 0
922 -861 -229 0
1085 -1076 -231 0
1076 -1085 -231 0
938 -1031 -233 0
1031 -938 -233 0
934 -963 -235 0
963 -934 -235 0
925 -1066 -237 0
1066 -925 -237 0
834 -1061 -239 0
1061 -834 -239 0
1028 -1001 -241 0
1001 -1028 -241 0
916 -1091 -243 0
1091 -916 -243 0
1094 -1116 -245 0
1116 -1094 -245 0
939 -1036 -247 0
1036 -939 -247 0
979 -860 -249 0
860 -979 -249 0
967 -997 -251 0
997 -967 -251 0
978 -1155 -253 0
1155 -978 -253 0
1128 -986 -255 0
986 -1128 -255 0
883 -1164 -257 0
1164 -883 -257 0
1048 -979 -259 0
979 -1048 -259 0
902 -843 -261 0
843 -902 -261 0
985 -946 -263 0
946 -985 -263 0
974 -1165 -265 0
1165 -974 -265 0
894 -1069 -267 0
1069 -894 -267 0
1163 -1112 -269 0
1112 -1163 -269 0
1087 -997 -271 0
997 -1087 -271 0
899 -1104 -273 0
1104 -899 -273 0
1150 -870 -275 0
870 -1150 -275 0
1015 -1086 -277 0
1086 -1015 -277 0
1113 -890 -279 0
890 -1113 -279 0
1023 -932 -281 0
932 -1023 -281 0
836 -929 -283 0
929 -836 -283 0
954 -1153 -285 0
1153 -954 -285 0
1001 -905 -287 0
905 -1001 -287 0
974 -981 -289 0
981 -974 -289 0
833 -1006 -291 0
1006 -833 -291 0
897 -863 -293 0
863 -897 -293 0
937 -864 -295 0
864 -937 -295 0
945 -893 -297 0
893 -945 -297 0
978 -1116 -299 0
1116 -978 -299 0
1069 -1067 -301 0
1067 -1069 -301 0
837 -1060 -303 0
1060 -837 -303 0
928 -1034 -305 0
1034 -928 -305 0
866 -853 -307 0
853 -866 -307 0
883 -839 -309 0
839 -883 -309 0
859 -1013 -311 0
1013 -859 -311 0
1038 -1162 -313 0
1162 -1038 -313 0
914 -1109 -315 0
1109 -914 -315 0
918 -1001 -317 0
1001 -918 -317 0
1097 -926 -319 0
926 -1097 -319 0
899 -1085 -321 0
1085 -899 -321 0
1005 -1097 -323 0
1097 -1005 -323 0
974 -896 -325 0
896 -974 -325 0
1029 -933 -327 0
933 -1029 -327 0
1080 -908 -329 0
908 -1080 -329 0
967 -1089 -331 0
1089 -967 -331 0
928 -940 -333 0
940 -928 -333 0
974 -899 -335 0
899 -974 -335 0
1159 -858 -337 0
858 -1159 -337 0
897 -984 -339 0
984 -897 -339 0
1142 -1022 -341 0
1022 -1142 -341 0
1086 -952 -343 0
952 -1086 -343 0
889 -921 -345 0
921 -889 -345 0
927 -1083 -347 0
1083 -927 -347 0
834 -838 -349 0
838 -834 -349 0
999 -852 -351 0
852 -999 -351 0
1090 -962 -353 0
962 -1090 -353 0
956 -885 -355 0
885 -956 -355 0
845 -1135 -357 0
1135 -845 -357 0
1044 -985 -359 0
985 -1044 -359 0
908 -937 -361 0
937 -908 -361 0
906 -1056 -363 0
1056 -906 -363 0
897 -1155 -365 0
1155 -897 -365 0
1103 -913 -367 0
913 -1103 -367 0
1111 -862 -369 0
862 -1111 -369 0
1044 -1141 -371 0
1141 -1044 -371 0
1054 -948 -373 0
948 -1054 -373 0
1139 -1050 -375 0
1050 -1139 -375 0
1141 -1047 -377 0
1047 -1141 -377 0
1006 -1147 -379 0
1147 -1006 -379 0
977 -1098 -381 0
1098 -977 -381 0
980 -1139 -383 0
1139 -980 -383 0
907 -934 -385 0
934 -907 -385 0
897 -884 -387 0
884 -897 -387 0
1132 -1144 -389 0
1144 -1132 -389 0
913 -954 -391 0
954 -913 -391 0
979 -1021 -393 0
1021 -979 -393 0
1004 -890 -395 0
890 -1004 -395 0
1119 -1051 -397 0
1051 -1119 -397 0
960 -931 -399 0
931 -960 -399 0
910 -1131 -401 0
1131 -910 -401 0
848 -1111 -403 0
1111 -848 -403 0
1159 -911 -405 0
911 -1159 -405 0
1075 -1128 -407 0
1128 -1075 -407 0
840 -1115 -409 0
1115 -840 -409 0
837 -1008 -411 0
1008 -837 -411 0
867 -891 -413 0
891 -867 -413 0
1140 -1098 -415 0
1098 -1140 -415 0
1003 -952 -417 0
952 -1003 -417 0
1067 -962 -419 0
962 -1067 -419 0
1157 -945 -421 0
945 -1157 -421 0
848 -850 -423 0
850 -848 -423 0
840 -1114 -425 0
1114 -840 -425 0
1002 -1004 -427 0
1004 -1002 -427 0
975 -936 -429 0
936 -975 -429 0
886 -1030 -431 0
1030 -886 -431 0
1045 -917 -433 0
917 -1045 -433 0
884 -946 -435 0
946 -884 -435 0
1145 -999 -437 0
999 -1145 -437 0
956 -1098 -439 0
1098 -956 -439 0
1133 -915 -441 0
915 -1133 -441 0
947 -912 -443 0
912 -947 -443 0
1155 -1047 -445 0
1047 -1155 -445 0
1103 -841 -447 0
841 -1103 -447 0
1149 -904 -449 0
904 -1149 -449 0
1105 -1052 -451 0
1052 -1105 -451 0
933 -857 -453 0
857 -933 -453 0
938 -879 -455 0
879 -938 -455 0
998 -1121 -457 0
1121 -998 -457 0
914 -1010 -459 0
1010 -914 -459 0
955 -930 -461 0
930 -955 -461 0
996 -922 -463 0
922 -996 -463 0
917 -1125 -465 0
1125 -917 -465 0
849 -1090 -467 0
1090 -849 -467 0
847 -843 -469 0
843 -847 -469 0
934 -971 -471 0
971 -934 -471 0
888 -920 -473 0
920 -888 -473 0
862 -1146 -475 0
1146 -862 -475 0
1082 -991 -477 0
991 -1082 -477 0
857 -1029 -479 0
1029 -857 -479 0
850 -834 -481 0
834 -850 -481 0
969 -945 -483 0
945 -969 -483 0
846 -1134 -485 0
1134 -846 -485 0
928 -873 -487 0
873 -928 -487 0
1001 -905 -489 0
905 -1001 -489 0
1086 -1122 -491 0
1122 -1086 -491 0
925 -972 -493 0
972 -925 -493 0
840 -878 -495 0
878 -840 -495 0
986 -923 -497 0
923 -986 -497 0
914 -990 -499 0
990 -914 -499 0
844 -1127 -501 0
1127 -844 -501 0
951 -1151 -503 0
1151 -951 -503 0
833 -908 -505 0
908 -833 -505 0
1046 -1098 -507 0
1098 -1046 -507 0
979 -988 -509 0
988 -979 -509 0
1070 -844 -511 0
844 -1070 -511 0
894 -1157 -513 0
1157 -894 -513 0
1082 -863 -515 0
863 -1082 -515 0
863 -883 -517 0
883 -863 -517 0
870 -1150 -519 0
1150 -870 -519 0
1117 -1018 -521 0
1018 -1117 -521 0
1003 -1086 -523 0
1086 -1003 -523 0
865 -866 -525 0
866 -865 -525 0
871 -1058 -527 0
1058 -871 -527 0
930 -841 -529 0
841 -930 -529 0
1165 -866 -531 0
866 -1165 -531 0
1115 -1024 -533 0
1024 -1115 -533 0
928 -999 -535 0
999 -928 -535 0
963 -887 -537 0
887 -963 -537 0
895 -1168 -539 0
1168 -895 -539 0
903 -932 -541 0
932 -903 -541 0
1017 -875 -543 0
875 -1017 -543 0
924 -1156 -545 0
1156 -924 -545 0
1118 -1083 -547 0
1083 -1118 -547 0
971 -992 -549 0
992 -971 -549 0
1154 -1066 -551 0
1066 -1154 -551 0
840 -1035 -553 0
1035 -840 -553 0
1152 -1115 -555 0
1115 -1152 -555 0
1081 -867 -557 0
867 -1081 -557 0
1081 -1106 -559 0
1106 -1081 -559 0
1051 -845 -561 0
845 -1051 -561 0
993 -934 -563 0
934 -993 -563 0
858 -1049 -565 0
1049 -858 -565 0
1117 -1018 -567 0
1018 -1117 -567 0
1097 -958 -569 0
958 -1097 -569 0
927 -991 -571 0
991 -927 -571 0
840 -878 -573 0
878 -840 -573 0
1117 -1018 -575 0
1018 -1117 -575 0
1138 -1093 -577 0
1093 -1138 -577 0
975 -1008 -579 0
1008 -975 -579 0
877 -986 -581 0
986 -877 -581 0
1148 -948 -583 0
948 -1148 -583 0
1092 -939 -585 0
939 -1092 -585 0
1170 -1146 -587 0
1146 -1170 -587 0
1102 -1087 -589 0
1087 -1102 -589 0
943 -1064 -591 0
1064 -943 -591 0
1072 -1012 -593 0
1012 -1072 -593 0
909 -898 -595 0
898 -909 -595 0
1105 -1072 -597 0
1072 -1105 -597 0
1110 -1136 -599 0
1136 -1110 -599 0
1106 -951 -601 0
951 -1106 -601 0
872 -1118 -603 0
1118 -872 -603 0
850 -876 -605 0
876 -850 -605 0
959 -970 -607 0
970 -959 -607 0
856 -1051 -609 0
1051 -856 -609 0
854 -886 -611 0
886 -854 -611 0
1107 -1169 -613 0
1169 -1107 -613 0
867 -852 -615 0
852 -867 -615 0
897 -868 -617 0
868 -897 -617 0
1132 -933 -619 0
933 -1132 -619 0
1081 -940 -621 0
940 -1081 -621 0
897 -1118 -623 0
1118 -897 -623 0
1072 -864 -625 0
864 -1072 -625 0
1048 -1019 -627 0
1019 -1048 -627 0
1014 -918 -629 0
918 -1014 -629 0
903 -1062 -631 0
1062 -903 -631 0
883 -839 -633 0
839 -883 -633 0
1035 -964 -635 0
964 -1035 -635 0
906 -936 -637 0
936 -906 -637 0
1077 -967 -639 0
967 -1077 -639 0
951 -1122 -641 0
1122 -951 -641 0
1059 -930 -643 0
930 -1059 -643 0
1022 -890 -645 0
890 -1022 -645 0
940 -867 -647 0
867 -940 -647 0
907 -934 -649 0
934 -907 -649 0
1030 -1135 -651 0
1135 -1030 -651 0
885 -1098 -653 0
1098 -885 -653 0
935 -1020 -655 0
1020 -935 -655 0
1169 -1147 -657 0
1147 -1169 -657 0
1049 -862 -659 0
862 -1049 -659 0
1005 -1031 -661 0
1031 -1005 -661 0
1117 -1018 -663 0
1018 -1117 -663 0
902 -1076 -665 0
1076 -902 -665 0
1105 -1052 -667 0
1052 -1105 -667 0
849 -966 -669 0
966 -849 -669 0
1059 -841 -671 0
841 -1059 -671 0
1015 -1106 -673 0
1106 -1015 -673 0
1145 -852 -675 0
852 -1145 -675 0
846 -970 -677 0
970 -846 -677 0
871 -1034 -679 0
1034 -871 -679 0
882 -1144 -681 0
1144 -882 -681 0
1081 -1167 -683 0
1167 -1081 -683 0
994 -964 -685 0
964 -994 -685 0
914 -921 -687 0
921 -914 -687 0
1135 -1072 -689 0
1072 -1135 -689 0
894 -893 -691 0
893 -894 -691 0
1161 -1082 -693 0
1082 -1161 -693 0
1021 -1087 -695 0
1087 -1021 -695 0
837 -1041 -697 0
1041 -837 -697 0
1100 -858 -699 0
858 -1100 -699 0
1053 -1127 -701 0
1127 -1053 -701 0
1124 -1064 -703 0
1064 -1124 -703 0
1053 -1162 -705 0
1162 -1053 -705 0
1053 -1073 -707 0
1073 -1053 -707 0
1143 -860 -709 0
860 -1143 -709 0
1160 -894 -711 0
894 -1160 -711 0
1068 -1095 -713 0
1095 -1068 -713 0
1007 -880 -715 0
880 -1007 -715 0
920 -841 -717 0
841 -920 -717 0
1027 -993 -719 0
993 -1027 -719 0
1080 -908 -721 0
908 -1080 -721 0
1108 -874 -723 0
874 -1108 -723 0
1117 -1018 -725 0
1018 -1117 -725 0
978 -1007 -727 0
1007 -978 -727 0
993 -963 -729 0
963 -993 -729 0
880 -1155 -731 0
1155 -880 -731 0
1052 -1040 -733 0
1040 -1052 -733 0
904 -939 -735 0
939 -904 -735 0
1170 -876 -737 0
876 -1170 -737 0
1048 -923 -739 0
923 -1048 -739 0
1046 -1137 -741 0
1137 -1046 -741 0
973 -1083 -743 0
1083 -973 -743 0
912 -1011 -745 0
1011 -912 -745 0
1088 -838 -747 0
838 -1088 -747 0
1038 -844 -749 0
844 -1038 -749 0
882 -983 -751 0
983 -882 -751 0
947 -1156 -753 0
1156 -947 -753 0
1002 -1079 -755 0
1079 -1002 -755 0
1088 -1052 -757 0
1052 -1088 -757 0
984 -1012 -759 0
1012 -984 -759 0
1089 -1091 -761 0
1091 -1089 -761 0
1039 -1041 -763 0
1041 -1039 -763 0
1129 -1079 -765 0
1079 -1129 -765 0
876 -1042 -767 0
1042 -876 -767 0
966 -885 -769 0
885 -966 -769 0
895 -920 -771 0
920 -895 -771 0
1000 -958 -773 0
958 -1000 -773 0
1137 -1140 -775 0
1140 -1137 -775 0
950 -1030 -777 0
1030 -950 -777 0
1027 -853 -779 0
853 -1027 -779 0
860 -1128 -781 0
1128 -860 -781 0
859 -850 -783 0
850 -859 -783 0
1162 -872 -785 0
872 -1162 -785 0
878 -998 -787 0
998 -878 -787 0
1040 -1136 -789 0
1136 -1040 -789 0
927 -868 -791 0
868 -927 -791 0
908 -941 -793 0
941 -908 -793 0
1120 -1054 -795 0
1054 -1120 -795 0
876 -1126 -797 0
1126 -876 -797 0
1096 -989 -799 0
989 -1096 -799 0
1072 -941 -801 0
941 -1072 -801 0
935 -1074 -803 0
1074 -935 -803 0
1052 -1120 -805 0
1120 -1052 -805 0
1067 -958 -807 0
958 -1067 -807 0
970 -1016 -809 0
1016 -970 -809 0
953 -1025 -811 0
1025 -953 -811 0
1057 -867 -813 0
867 -1057 -813 0
953 -839 -815 0
839 -953 -815 0
861 -1101 -817 0
1101 -861 -817 0
845 -1119 -819 0
1119 -845 -819 0
1050 -949 -821 0
949 -1050 -821 0
1043 -884 -823 0
884 -1043 -823 0
835 -850 -825 0
850 -835 -825 0
962 -1098 -827 0
1098 -962 -827 0
1139 -1017 -829 0
1017 -1139 -829 0
1093 -1016 -831 0
1016 -1093 -831 0

